<number of tasks>
20

<cycle time>
1000

<order strength>
0,289


<task times>
1 181
2 80
3 93
4 202
5 200
6 37
7 100
8 279
9 71
10 252
11 65
12 355
13 207
14 136
15 60
16 241
17 65
18 236
19 83
20 42

<precedence relations>
1,13
2,13
3,4
3,5
3,6
3,7
3,8
3,9
4,13
5,12
8,10
9,11
10,13
11,14
11,15
11,16
13,17
13,18
13,19
13,20

<end>
